c ind 1 2 3 4 5 6 7 8 9 10 11 12 13 14 15 16 17 18 19 20 21 0
p cnf 201 338               
-16 1 -45 0
45 -48 0
-17 2 -46 0
46 -48 0
-18 3 -47 0
47 -48 0
48 -63 0
-17 -16 -49 0
49 -53 0
-16 50 0
-17 50 0
16 17 -50 0
-50 -18 -51 0
51 -53 0
18 50 -52 0
52 -53 0
53 -63 0
-19 1 -54 0
54 -57 0
-20 2 -55 0
55 -57 0
-21 3 -56 0
56 -57 0
57 -63 0
-20 -19 -58 0
58 -62 0
-19 59 0
-20 59 0
19 20 -59 0
-59 -21 -60 0
60 -62 0
21 59 -61 0
61 -62 0
62 -63 0
63 122 0
7 91 0
7 -64 0
16 -64 0
-7 -16 64 0
-64 73 0
10 -67 0
17 -67 0
-10 -17 67 0
-67 73 0
13 -70 0
18 -70 0
-13 -18 70 0
-70 73 0
64 67 70 -73 0
-73 88 0
7 -76 0
19 -76 0
-7 -19 76 0
-76 85 0
10 -79 0
20 -79 0
-10 -20 79 0
-79 85 0
13 -82 0
21 -82 0
-13 -21 82 0
-82 85 0
76 79 82 -85 0
-85 88 0
73 85 -88 0
-88 91 0
8 92 0
8 -65 0
16 -65 0
-8 -16 65 0
-65 74 0
11 -68 0
17 -68 0
-11 -17 68 0
-68 74 0
14 -71 0
18 -71 0
-14 -18 71 0
-71 74 0
65 68 71 -74 0
-74 89 0
8 -77 0
19 -77 0
-8 -19 77 0
-77 86 0
11 -80 0
20 -80 0
-11 -20 80 0
-80 86 0
14 -83 0
21 -83 0
-14 -21 83 0
-83 86 0
77 80 83 -86 0
-86 89 0
74 86 -89 0
-89 92 0
9 93 0
9 -66 0
16 -66 0
-9 -16 66 0
-66 75 0
12 -69 0
17 -69 0
-12 -17 69 0
-69 75 0
15 -72 0
18 -72 0
-15 -18 72 0
-72 75 0
66 69 72 -75 0
-75 90 0
9 -78 0
19 -78 0
-9 -19 78 0
-78 87 0
12 -81 0
20 -81 0
-12 -20 81 0
-81 87 0
15 -84 0
21 -84 0
-15 -21 84 0
-84 87 0
78 81 84 -87 0
-87 90 0
75 87 -90 0
-90 93 0
-91 -92 -93 94 0
88 95 0
-7 95 0
89 96 0
-8 96 0
90 97 0
-9 97 0
-95 -96 -97 98 0
-94 -98 99 0
-1 -99 100 0
-100 121 0
10 101 0
-88 101 0
11 102 0
-89 102 0
12 103 0
-90 103 0
-101 -102 -103 104 0
88 105 0
-10 105 0
89 106 0
-11 106 0
90 107 0
-12 107 0
-105 -106 -107 108 0
-104 -108 109 0
-2 -109 110 0
-110 121 0
13 111 0
-88 111 0
14 112 0
-89 112 0
15 113 0
-90 113 0
-111 -112 -113 114 0
88 115 0
-13 115 0
89 116 0
-14 116 0
90 117 0
-15 117 0
-115 -116 -117 118 0
-114 -118 119 0
-3 -119 120 0
-120 121 0
-121 122 0
-122 -123 0
-7 4 -22 0
22 -25 0
-8 5 -23 0
23 -25 0
-9 6 -24 0
24 -25 0
-1 25 -26 0
26 -37 0
-10 4 -27 0
27 -30 0
-11 5 -28 0
28 -30 0
-12 6 -29 0
29 -30 0
-2 30 -31 0
31 -37 0
-13 4 -32 0
32 -35 0
-14 5 -33 0
33 -35 0
-15 6 -34 0
34 -35 0
-3 35 -36 0
36 -37 0
37 -123 0
-7 38 0
-8 38 0
-9 38 0
-38 1 -41 0
41 -44 0
-10 39 0
-11 39 0
-12 39 0
-39 2 -42 0
42 -44 0
-13 40 0
-14 40 0
-15 40 0
-40 3 -43 0
43 -44 0
44 -123 0
-4 5 -124 0
124 -138 0
-4 -5 125 0
4 5 125 0
-5 5 125 0
-7 8 -126 0
-125 126 -127 0
127 -138 0
-7 -8 128 0
7 8 128 0
-8 8 128 0
-125 -128 129 0
-10 11 -130 0
-129 130 -131 0
131 -138 0
-10 -11 132 0
10 11 132 0
-11 11 132 0
-129 -132 133 0
-13 14 -134 0
-133 134 -135 0
135 -138 0
138 -200 0
-5 6 -139 0
139 -153 0
-5 -6 140 0
5 6 140 0
-6 6 140 0
-8 9 -141 0
-140 141 -142 0
142 -153 0
-8 -9 143 0
8 9 143 0
-9 9 143 0
-140 -143 144 0
-11 12 -145 0
-144 145 -146 0
146 -153 0
-11 -12 147 0
11 12 147 0
-12 12 147 0
-144 -147 148 0
-14 15 -149 0
-148 149 -150 0
150 -153 0
153 -200 0
-16 17 -154 0
154 -176 0
-16 -17 155 0
16 17 155 0
-17 17 155 0
-19 20 -156 0
-155 156 -157 0
157 -176 0
-19 -20 158 0
19 20 158 0
-20 20 158 0
-155 -158 159 0
-1 2 -160 0
-159 160 -161 0
161 -176 0
-1 -2 162 0
1 2 162 0
-2 2 162 0
-159 -162 163 0
-7 10 -164 0
-163 164 -165 0
165 -176 0
-7 -10 166 0
7 10 166 0
-10 10 166 0
-163 -166 167 0
-8 11 -168 0
-167 168 -169 0
169 -176 0
-8 -11 170 0
8 11 170 0
-11 11 170 0
-167 -170 171 0
-9 12 -172 0
-171 172 -173 0
173 -176 0
176 -200 0
-17 18 -177 0
177 -199 0
-17 -18 178 0
17 18 178 0
-18 18 178 0
-20 21 -179 0
-178 179 -180 0
180 -199 0
-20 -21 181 0
20 21 181 0
-21 21 181 0
-178 -181 182 0
-2 3 -183 0
-182 183 -184 0
184 -199 0
-2 -3 185 0
2 3 185 0
-3 3 185 0
-182 -185 186 0
-10 13 -187 0
-186 187 -188 0
188 -199 0
-10 -13 189 0
10 13 189 0
-13 13 189 0
-186 -189 190 0
-11 14 -191 0
-190 191 -192 0
192 -199 0
-11 -14 193 0
11 14 193 0
-14 14 193 0
-190 -193 194 0
-12 15 -195 0
-194 195 -196 0
196 -199 0
199 -200 0
123 0
200 0
